data/lp_files/q3/60_0.lp
\ Model foo
\ LP format - for model browsing. Use MPS format to capture full model detail.
Minimize
  z
Subject To
 allocateEach[1]: x[1,1] + x[2,1] + x[3,1] = 1
 allocateEach[2]: x[1,2] + x[2,2] + x[3,2] = 1
 allocateEach[3]: x[1,3] + x[2,3] + x[3,3] = 1
 allocateEach[4]: x[1,4] + x[2,4] + x[3,4] = 1
 allocateEach[5]: x[1,5] + x[2,5] + x[3,5] = 1
 allocateEach[6]: x[1,6] + x[2,6] + x[3,6] = 1
 allocateEach[7]: x[1,7] + x[2,7] + x[3,7] = 1
 allocateEach[8]: x[1,8] + x[2,8] + x[3,8] = 1
 allocateEach[9]: x[1,9] + x[2,9] + x[3,9] = 1
 allocateEach[10]: x[1,10] + x[2,10] + x[3,10] = 1
 allocateEach[11]: x[1,11] + x[2,11] + x[3,11] = 1
 allocateEach[12]: x[1,12] + x[2,12] + x[3,12] = 1
 allocateEach[13]: x[1,13] + x[2,13] + x[3,13] = 1
 allocateEach[14]: x[1,14] + x[2,14] + x[3,14] = 1
 allocateEach[15]: x[1,15] + x[2,15] + x[3,15] = 1
 allocateEach[16]: x[1,16] + x[2,16] + x[3,16] = 1
 allocateEach[17]: x[1,17] + x[2,17] + x[3,17] = 1
 allocateEach[18]: x[1,18] + x[2,18] + x[3,18] = 1
 allocateEach[19]: x[1,19] + x[2,19] + x[3,19] = 1
 allocateEach[20]: x[1,20] + x[2,20] + x[3,20] = 1
 allocateAllCash: cashProportion[1] + cashProportion[2] + cashProportion[3]
   = 1
 findWorstP[1,2]: z + 0.00521099311106711 cashProportion[1]
   - 0.00521099311106711 cashProportion[2] + 0.0327979906410564 x[1,1]
   + 0.0102656564288022 x[1,2] + 0.0205104688851601 x[1,3]
   + 0.087044428927265 x[1,4] + 0.1014684578586987 x[1,5]
   + 0.0876801700868151 x[1,6] + 0.055288636908422 x[1,7]
   + 0.0830736521766318 x[1,8] + 0.0043876561995185 x[1,9]
   + 0.0514429239924545 x[1,10] + 0.0722347865056122 x[1,11]
   + 0.0407187001698784 x[1,12] + 0.00400204270929954 x[1,13]
   + 6.4616314577232124e-04 x[1,14] + 0.00968202520036268 x[1,15]
   + 0.0989880251378308 x[1,16] + 0.0175089368531855 x[1,17]
   + 0.0755698220966952 x[1,18] + 0.0521307750831153 x[1,19]
   + 0.0893476878823566 x[1,20] - 0.0327979906410564 x[2,1]
   - 0.0102656564288022 x[2,2] - 0.0205104688851601 x[2,3]
   - 0.087044428927265 x[2,4] - 0.1014684578586987 x[2,5]
   - 0.0876801700868151 x[2,6] - 0.055288636908422 x[2,7]
   - 0.0830736521766318 x[2,8] - 0.0043876561995185 x[2,9]
   - 0.0514429239924545 x[2,10] - 0.0722347865056122 x[2,11]
   - 0.0407187001698784 x[2,12] - 0.00400204270929954 x[2,13]
   - 6.4616314577232124e-04 x[2,14] - 0.00968202520036268 x[2,15]
   - 0.0989880251378308 x[2,16] - 0.0175089368531855 x[2,17]
   - 0.0755698220966952 x[2,18] - 0.0521307750831153 x[2,19]
   - 0.0893476878823566 x[2,20] >= 0
 findWorstP[1,3]: z + 0.00521099311106711 cashProportion[1]
   - 0.00521099311106711 cashProportion[3] + 0.0327979906410564 x[1,1]
   + 0.0102656564288022 x[1,2] + 0.0205104688851601 x[1,3]
   + 0.087044428927265 x[1,4] + 0.1014684578586987 x[1,5]
   + 0.0876801700868151 x[1,6] + 0.055288636908422 x[1,7]
   + 0.0830736521766318 x[1,8] + 0.0043876561995185 x[1,9]
   + 0.0514429239924545 x[1,10] + 0.0722347865056122 x[1,11]
   + 0.0407187001698784 x[1,12] + 0.00400204270929954 x[1,13]
   + 6.4616314577232124e-04 x[1,14] + 0.00968202520036268 x[1,15]
   + 0.0989880251378308 x[1,16] + 0.0175089368531855 x[1,17]
   + 0.0755698220966952 x[1,18] + 0.0521307750831153 x[1,19]
   + 0.0893476878823566 x[1,20] - 0.0327979906410564 x[3,1]
   - 0.0102656564288022 x[3,2] - 0.0205104688851601 x[3,3]
   - 0.087044428927265 x[3,4] - 0.1014684578586987 x[3,5]
   - 0.0876801700868151 x[3,6] - 0.055288636908422 x[3,7]
   - 0.0830736521766318 x[3,8] - 0.0043876561995185 x[3,9]
   - 0.0514429239924545 x[3,10] - 0.0722347865056122 x[3,11]
   - 0.0407187001698784 x[3,12] - 0.00400204270929954 x[3,13]
   - 6.4616314577232124e-04 x[3,14] - 0.00968202520036268 x[3,15]
   - 0.0989880251378308 x[3,16] - 0.0175089368531855 x[3,17]
   - 0.0755698220966952 x[3,18] - 0.0521307750831153 x[3,19]
   - 0.0893476878823566 x[3,20] >= 0
 findWorstP[2,1]: z - 0.005609217065482 cashProportion[1]
   + 0.005609217065482 cashProportion[2] - 0.0488338437720863 x[1,1]
   - 8.97475e-05 x[1,2] - 0.0926979212241555 x[1,3]
   - 0.00695542916119768 x[1,4] - 0.0564175052446179 x[1,5]
   - 0.0896577255746643 x[1,6] - 0.00265876888903847 x[1,7]
   - 9.1991159873904785e-04 x[1,8] - 0.0830725047397884 x[1,9]
   - 0.1117692592467943 x[1,10] - 0.00355624361951559 x[1,11]
   - 0.0989578074692334 x[1,12] - 0.0717418862675148 x[1,13]
   - 0.00288313757165775 x[1,14] - 0.0846991776887782 x[1,15]
   - 0.0530856303077216 x[1,16] - 0.074165068039803 x[1,17]
   - 0.0389952770392309 x[1,18] - 0.0189703721154601 x[1,19]
   - 0.0542635658914729 x[1,20] + 0.0488338437720863 x[2,1]
   + 8.97475e-05 x[2,2] + 0.0926979212241555 x[2,3]
   + 0.00695542916119768 x[2,4] + 0.0564175052446179 x[2,5]
   + 0.0896577255746643 x[2,6] + 0.00265876888903847 x[2,7]
   + 9.1991159873904785e-04 x[2,8] + 0.0830725047397884 x[2,9]
   + 0.1117692592467943 x[2,10] + 0.00355624361951559 x[2,11]
   + 0.0989578074692334 x[2,12] + 0.0717418862675148 x[2,13]
   + 0.00288313757165775 x[2,14] + 0.0846991776887782 x[2,15]
   + 0.0530856303077216 x[2,16] + 0.074165068039803 x[2,17]
   + 0.0389952770392309 x[2,18] + 0.0189703721154601 x[2,19]
   + 0.0542635658914729 x[2,20] >= 0
 findWorstP[2,3]: z + 0.005609217065482 cashProportion[2]
   - 0.005609217065482 cashProportion[3] + 0.0488338437720863 x[2,1]
   + 8.97475e-05 x[2,2] + 0.0926979212241555 x[2,3]
   + 0.00695542916119768 x[2,4] + 0.0564175052446179 x[2,5]
   + 0.0896577255746643 x[2,6] + 0.00265876888903847 x[2,7]
   + 9.1991159873904785e-04 x[2,8] + 0.0830725047397884 x[2,9]
   + 0.1117692592467943 x[2,10] + 0.00355624361951559 x[2,11]
   + 0.0989578074692334 x[2,12] + 0.0717418862675148 x[2,13]
   + 0.00288313757165775 x[2,14] + 0.0846991776887782 x[2,15]
   + 0.0530856303077216 x[2,16] + 0.074165068039803 x[2,17]
   + 0.0389952770392309 x[2,18] + 0.0189703721154601 x[2,19]
   + 0.0542635658914729 x[2,20] - 0.0488338437720863 x[3,1]
   - 8.97475e-05 x[3,2] - 0.0926979212241555 x[3,3]
   - 0.00695542916119768 x[3,4] - 0.0564175052446179 x[3,5]
   - 0.0896577255746643 x[3,6] - 0.00265876888903847 x[3,7]
   - 9.1991159873904785e-04 x[3,8] - 0.0830725047397884 x[3,9]
   - 0.1117692592467943 x[3,10] - 0.00355624361951559 x[3,11]
   - 0.0989578074692334 x[3,12] - 0.0717418862675148 x[3,13]
   - 0.00288313757165775 x[3,14] - 0.0846991776887782 x[3,15]
   - 0.0530856303077216 x[3,16] - 0.074165068039803 x[3,17]
   - 0.0389952770392309 x[3,18] - 0.0189703721154601 x[3,19]
   - 0.0542635658914729 x[3,20] >= 0
 findWorstP[3,1]: z - 0.00420125701609922 cashProportion[1]
   + 0.00420125701609922 cashProportion[3] - 0.0666571438174302 x[1,1]
   - 0.0218381339696837 x[1,2] - 0.0403068598124559 x[1,3]
   - 0.0561203912210533 x[1,4] - 0.0801935939233019 x[1,5]
   - 0.0203592915000168 x[1,6] - 0.0366601687224818 x[1,7]
   - 0.0205861593788862 x[1,8] - 0.0758999092528485 x[1,9]
   - 0.04827244311498 x[1,10] - 0.0476506570765973 x[1,11]
   - 0.0197963230598595 x[1,12] - 0.0476926696467583 x[1,13]
   - 0.0627163647363291 x[1,14] - 0.0787063489396027 x[1,15]
   - 0.0760595570194602 x[1,16] - 0.0596494471145767 x[1,17]
   - 0.0357947097771653 x[1,18] - 0.0622710314926226 x[1,19]
   - 0.0385675394077908 x[1,20] + 0.0666571438174302 x[3,1]
   + 0.0218381339696837 x[3,2] + 0.0403068598124559 x[3,3]
   + 0.0561203912210533 x[3,4] + 0.0801935939233019 x[3,5]
   + 0.0203592915000168 x[3,6] + 0.0366601687224818 x[3,7]
   + 0.0205861593788862 x[3,8] + 0.0758999092528485 x[3,9]
   + 0.04827244311498 x[3,10] + 0.0476506570765973 x[3,11]
   + 0.0197963230598595 x[3,12] + 0.0476926696467583 x[3,13]
   + 0.0627163647363291 x[3,14] + 0.0787063489396027 x[3,15]
   + 0.0760595570194602 x[3,16] + 0.0596494471145767 x[3,17]
   + 0.0357947097771653 x[3,18] + 0.0622710314926226 x[3,19]
   + 0.0385675394077908 x[3,20] >= 0
 findWorstP[3,2]: z - 0.00420125701609922 cashProportion[2]
   + 0.00420125701609922 cashProportion[3] - 0.0666571438174302 x[2,1]
   - 0.0218381339696837 x[2,2] - 0.0403068598124559 x[2,3]
   - 0.0561203912210533 x[2,4] - 0.0801935939233019 x[2,5]
   - 0.0203592915000168 x[2,6] - 0.0366601687224818 x[2,7]
   - 0.0205861593788862 x[2,8] - 0.0758999092528485 x[2,9]
   - 0.04827244311498 x[2,10] - 0.0476506570765973 x[2,11]
   - 0.0197963230598595 x[2,12] - 0.0476926696467583 x[2,13]
   - 0.0627163647363291 x[2,14] - 0.0787063489396027 x[2,15]
   - 0.0760595570194602 x[2,16] - 0.0596494471145767 x[2,17]
   - 0.0357947097771653 x[2,18] - 0.0622710314926226 x[2,19]
   - 0.0385675394077908 x[2,20] + 0.0666571438174302 x[3,1]
   + 0.0218381339696837 x[3,2] + 0.0403068598124559 x[3,3]
   + 0.0561203912210533 x[3,4] + 0.0801935939233019 x[3,5]
   + 0.0203592915000168 x[3,6] + 0.0366601687224818 x[3,7]
   + 0.0205861593788862 x[3,8] + 0.0758999092528485 x[3,9]
   + 0.04827244311498 x[3,10] + 0.0476506570765973 x[3,11]
   + 0.0197963230598595 x[3,12] + 0.0476926696467583 x[3,13]
   + 0.0627163647363291 x[3,14] + 0.0787063489396027 x[3,15]
   + 0.0760595570194602 x[3,16] + 0.0596494471145767 x[3,17]
   + 0.0357947097771653 x[3,18] + 0.0622710314926226 x[3,19]
   + 0.0385675394077908 x[3,20] >= 0
Bounds
 z <= 1
 -infinity <= cashProportion[1] <= 1
 -infinity <= cashProportion[2] <= 1
 -infinity <= cashProportion[3] <= 1
Binaries
 x[1,1] x[1,2] x[1,3] x[1,4] x[1,5] x[1,6] x[1,7] x[1,8] x[1,9] x[1,10]
 x[1,11] x[1,12] x[1,13] x[1,14] x[1,15] x[1,16] x[1,17] x[1,18] x[1,19]
 x[1,20] x[2,1] x[2,2] x[2,3] x[2,4] x[2,5] x[2,6] x[2,7] x[2,8] x[2,9]
 x[2,10] x[2,11] x[2,12] x[2,13] x[2,14] x[2,15] x[2,16] x[2,17] x[2,18]
 x[2,19] x[2,20] x[3,1] x[3,2] x[3,3] x[3,4] x[3,5] x[3,6] x[3,7] x[3,8]
 x[3,9] x[3,10] x[3,11] x[3,12] x[3,13] x[3,14] x[3,15] x[3,16] x[3,17]
 x[3,18] x[3,19] x[3,20]
End
