data/mps_files/pEFS/60_0.mps
NAME foo
ROWS
 N  OBJ
 E  allocateEach[1]
 E  allocateEach[2]
 E  allocateEach[3]
 E  allocateEach[4]
 E  allocateEach[5]
 E  allocateEach[6]
 E  allocateEach[7]
 E  allocateEach[8]
 E  allocateEach[9]
 E  allocateEach[10]
 E  allocateEach[11]
 E  allocateEach[12]
 E  allocateEach[13]
 E  allocateEach[14]
 E  allocateEach[15]
 E  allocateEach[16]
 E  allocateEach[17]
 E  allocateEach[18]
 E  allocateEach[19]
 E  allocateEach[20]
 E  allocateAllCash
 G  findWorstP[1,2]
 G  findWorstP[1,3]
 G  findWorstP[2,1]
 G  findWorstP[2,3]
 G  findWorstP[3,1]
 G  findWorstP[3,2]
COLUMNS
    z         OBJ       1
    z         findWorstP[1,2]  1
    z         findWorstP[1,3]  1
    z         findWorstP[2,1]  1
    z         findWorstP[2,3]  1
    z         findWorstP[3,1]  1
    z         findWorstP[3,2]  1
    cashProportion[1]  allocateAllCash  1
    cashProportion[1]  findWorstP[1,2]  5.2109931110671075e-03
    cashProportion[1]  findWorstP[1,3]  5.2109931110671075e-03
    cashProportion[1]  findWorstP[2,1]  -5.6092170654819988e-03
    cashProportion[1]  findWorstP[3,1]  -4.2012570160992174e-03
    cashProportion[2]  allocateAllCash  1
    cashProportion[2]  findWorstP[1,2]  -5.2109931110671075e-03
    cashProportion[2]  findWorstP[2,1]  5.6092170654819988e-03
    cashProportion[2]  findWorstP[2,3]  5.6092170654819988e-03
    cashProportion[2]  findWorstP[3,2]  -4.2012570160992174e-03
    cashProportion[3]  allocateAllCash  1
    cashProportion[3]  findWorstP[1,3]  -5.2109931110671075e-03
    cashProportion[3]  findWorstP[2,3]  -5.6092170654819988e-03
    cashProportion[3]  findWorstP[3,1]  4.2012570160992174e-03
    cashProportion[3]  findWorstP[3,2]  4.2012570160992174e-03
    MARKER    'MARKER'                 'INTORG'
    x[1,1]    allocateEach[1]  1
    x[1,1]    findWorstP[1,2]  3.2797990641056367e-02
    x[1,1]    findWorstP[1,3]  3.2797990641056367e-02
    x[1,1]    findWorstP[2,1]  -4.8833843772086286e-02
    x[1,1]    findWorstP[3,1]  -6.6657143817430181e-02
    x[1,2]    allocateEach[2]  1
    x[1,2]    findWorstP[1,2]  0.0102656564288022
    x[1,2]    findWorstP[1,3]  0.0102656564288022
    x[1,2]    findWorstP[2,1]  -8.9747473047711984e-05
    x[1,2]    findWorstP[3,1]  -2.1838133969683732e-02
    x[1,3]    allocateEach[3]  1
    x[1,3]    findWorstP[1,2]  2.0510468885160133e-02
    x[1,3]    findWorstP[1,3]  2.0510468885160133e-02
    x[1,3]    findWorstP[2,1]  -9.2697921224155516e-02
    x[1,3]    findWorstP[3,1]  -4.0306859812455888e-02
    x[1,4]    allocateEach[4]  1
    x[1,4]    findWorstP[1,2]  8.7044428927264952e-02
    x[1,4]    findWorstP[1,3]  8.7044428927264952e-02
    x[1,4]    findWorstP[2,1]  -6.9554291611976784e-03
    x[1,4]    findWorstP[3,1]  -5.6120391221053348e-02
    x[1,5]    allocateEach[5]  1
    x[1,5]    findWorstP[1,2]  1.0146845785869871e-01
    x[1,5]    findWorstP[1,3]  1.0146845785869871e-01
    x[1,5]    findWorstP[2,1]  -5.6417505244617944e-02
    x[1,5]    findWorstP[3,1]  -8.0193593923301859e-02
    x[1,6]    allocateEach[6]  1
    x[1,6]    findWorstP[1,2]  8.7680170086815140e-02
    x[1,6]    findWorstP[1,3]  8.7680170086815140e-02
    x[1,6]    findWorstP[2,1]  -8.9657725574664268e-02
    x[1,6]    findWorstP[3,1]  -2.0359291500016804e-02
    x[1,7]    allocateEach[7]  1
    x[1,7]    findWorstP[1,2]  0.055288636908422
    x[1,7]    findWorstP[1,3]  0.055288636908422
    x[1,7]    findWorstP[2,1]  -2.6587688890384671e-03
    x[1,7]    findWorstP[3,1]  -3.6660168722481769e-02
    x[1,8]    allocateEach[8]  1
    x[1,8]    findWorstP[1,2]  8.3073652176631818e-02
    x[1,8]    findWorstP[1,3]  8.3073652176631818e-02
    x[1,8]    findWorstP[2,1]  -9.1991159873904785e-04
    x[1,8]    findWorstP[3,1]  -2.0586159378886162e-02
    x[1,9]    allocateEach[9]  1
    x[1,9]    findWorstP[1,2]  4.3876561995185035e-03
    x[1,9]    findWorstP[1,3]  4.3876561995185035e-03
    x[1,9]    findWorstP[2,1]  -0.0830725047397884
    x[1,9]    findWorstP[3,1]  -7.5899909252848452e-02
    x[1,10]   allocateEach[10]  1
    x[1,10]   findWorstP[1,2]  5.1442923992454474e-02
    x[1,10]   findWorstP[1,3]  5.1442923992454474e-02
    x[1,10]   findWorstP[2,1]  -1.1176925924679430e-01
    x[1,10]   findWorstP[3,1]  -0.04827244311498
    x[1,11]   allocateEach[11]  1
    x[1,11]   findWorstP[1,2]  7.2234786505612242e-02
    x[1,11]   findWorstP[1,3]  7.2234786505612242e-02
    x[1,11]   findWorstP[2,1]  -3.5562436195155870e-03
    x[1,11]   findWorstP[3,1]  -4.7650657076597325e-02
    x[1,12]   allocateEach[12]  1
    x[1,12]   findWorstP[1,2]  4.0718700169878372e-02
    x[1,12]   findWorstP[1,3]  4.0718700169878372e-02
    x[1,12]   findWorstP[2,1]  -9.8957807469233425e-02
    x[1,12]   findWorstP[3,1]  -1.9796323059859511e-02
    x[1,13]   allocateEach[13]  1
    x[1,13]   findWorstP[1,2]  4.0020427092995374e-03
    x[1,13]   findWorstP[1,3]  4.0020427092995374e-03
    x[1,13]   findWorstP[2,1]  -7.1741886267514765e-02
    x[1,13]   findWorstP[3,1]  -4.7692669646758314e-02
    x[1,14]   allocateEach[14]  1
    x[1,14]   findWorstP[1,2]  6.4616314577232124e-04
    x[1,14]   findWorstP[1,3]  6.4616314577232124e-04
    x[1,14]   findWorstP[2,1]  -2.8831375716577472e-03
    x[1,14]   findWorstP[3,1]  -0.0627163647363291
    x[1,15]   allocateEach[15]  1
    x[1,15]   findWorstP[1,2]  9.6820252003626834e-03
    x[1,15]   findWorstP[1,3]  9.6820252003626834e-03
    x[1,15]   findWorstP[2,1]  -8.4699177688778174e-02
    x[1,15]   findWorstP[3,1]  -7.8706348939602724e-02
    x[1,16]   allocateEach[16]  1
    x[1,16]   findWorstP[1,2]  9.8988025137830754e-02
    x[1,16]   findWorstP[1,3]  9.8988025137830754e-02
    x[1,16]   findWorstP[2,1]  -5.3085630307721635e-02
    x[1,16]   findWorstP[3,1]  -7.6059557019460225e-02
    x[1,17]   allocateEach[17]  1
    x[1,17]   findWorstP[1,2]  1.7508936853185480e-02
    x[1,17]   findWorstP[1,3]  1.7508936853185480e-02
    x[1,17]   findWorstP[2,1]  -0.074165068039803
    x[1,17]   findWorstP[3,1]  -5.9649447114576683e-02
    x[1,18]   allocateEach[18]  1
    x[1,18]   findWorstP[1,2]  7.5569822096695174e-02
    x[1,18]   findWorstP[1,3]  7.5569822096695174e-02
    x[1,18]   findWorstP[2,1]  -3.8995277039230856e-02
    x[1,18]   findWorstP[3,1]  -3.5794709777165326e-02
    x[1,19]   allocateEach[19]  1
    x[1,19]   findWorstP[1,2]  5.2130775083115331e-02
    x[1,19]   findWorstP[1,3]  5.2130775083115331e-02
    x[1,19]   findWorstP[2,1]  -1.8970372115460120e-02
    x[1,19]   findWorstP[3,1]  -6.2271031492622593e-02
    x[1,20]   allocateEach[20]  1
    x[1,20]   findWorstP[1,2]  8.9347687882356613e-02
    x[1,20]   findWorstP[1,3]  8.9347687882356613e-02
    x[1,20]   findWorstP[2,1]  -5.4263565891472861e-02
    x[1,20]   findWorstP[3,1]  -3.8567539407790813e-02
    x[2,1]    allocateEach[1]  1
    x[2,1]    findWorstP[1,2]  -3.2797990641056367e-02
    x[2,1]    findWorstP[2,1]  4.8833843772086286e-02
    x[2,1]    findWorstP[2,3]  4.8833843772086286e-02
    x[2,1]    findWorstP[3,2]  -6.6657143817430181e-02
    x[2,2]    allocateEach[2]  1
    x[2,2]    findWorstP[1,2]  -0.0102656564288022
    x[2,2]    findWorstP[2,1]  8.9747473047711984e-05
    x[2,2]    findWorstP[2,3]  8.9747473047711984e-05
    x[2,2]    findWorstP[3,2]  -2.1838133969683732e-02
    x[2,3]    allocateEach[3]  1
    x[2,3]    findWorstP[1,2]  -2.0510468885160133e-02
    x[2,3]    findWorstP[2,1]  9.2697921224155516e-02
    x[2,3]    findWorstP[2,3]  9.2697921224155516e-02
    x[2,3]    findWorstP[3,2]  -4.0306859812455888e-02
    x[2,4]    allocateEach[4]  1
    x[2,4]    findWorstP[1,2]  -8.7044428927264952e-02
    x[2,4]    findWorstP[2,1]  6.9554291611976784e-03
    x[2,4]    findWorstP[2,3]  6.9554291611976784e-03
    x[2,4]    findWorstP[3,2]  -5.6120391221053348e-02
    x[2,5]    allocateEach[5]  1
    x[2,5]    findWorstP[1,2]  -1.0146845785869871e-01
    x[2,5]    findWorstP[2,1]  5.6417505244617944e-02
    x[2,5]    findWorstP[2,3]  5.6417505244617944e-02
    x[2,5]    findWorstP[3,2]  -8.0193593923301859e-02
    x[2,6]    allocateEach[6]  1
    x[2,6]    findWorstP[1,2]  -8.7680170086815140e-02
    x[2,6]    findWorstP[2,1]  8.9657725574664268e-02
    x[2,6]    findWorstP[2,3]  8.9657725574664268e-02
    x[2,6]    findWorstP[3,2]  -2.0359291500016804e-02
    x[2,7]    allocateEach[7]  1
    x[2,7]    findWorstP[1,2]  -0.055288636908422
    x[2,7]    findWorstP[2,1]  2.6587688890384671e-03
    x[2,7]    findWorstP[2,3]  2.6587688890384671e-03
    x[2,7]    findWorstP[3,2]  -3.6660168722481769e-02
    x[2,8]    allocateEach[8]  1
    x[2,8]    findWorstP[1,2]  -8.3073652176631818e-02
    x[2,8]    findWorstP[2,1]  9.1991159873904785e-04
    x[2,8]    findWorstP[2,3]  9.1991159873904785e-04
    x[2,8]    findWorstP[3,2]  -2.0586159378886162e-02
    x[2,9]    allocateEach[9]  1
    x[2,9]    findWorstP[1,2]  -4.3876561995185035e-03
    x[2,9]    findWorstP[2,1]  0.0830725047397884
    x[2,9]    findWorstP[2,3]  0.0830725047397884
    x[2,9]    findWorstP[3,2]  -7.5899909252848452e-02
    x[2,10]   allocateEach[10]  1
    x[2,10]   findWorstP[1,2]  -5.1442923992454474e-02
    x[2,10]   findWorstP[2,1]  1.1176925924679430e-01
    x[2,10]   findWorstP[2,3]  1.1176925924679430e-01
    x[2,10]   findWorstP[3,2]  -0.04827244311498
    x[2,11]   allocateEach[11]  1
    x[2,11]   findWorstP[1,2]  -7.2234786505612242e-02
    x[2,11]   findWorstP[2,1]  3.5562436195155870e-03
    x[2,11]   findWorstP[2,3]  3.5562436195155870e-03
    x[2,11]   findWorstP[3,2]  -4.7650657076597325e-02
    x[2,12]   allocateEach[12]  1
    x[2,12]   findWorstP[1,2]  -4.0718700169878372e-02
    x[2,12]   findWorstP[2,1]  9.8957807469233425e-02
    x[2,12]   findWorstP[2,3]  9.8957807469233425e-02
    x[2,12]   findWorstP[3,2]  -1.9796323059859511e-02
    x[2,13]   allocateEach[13]  1
    x[2,13]   findWorstP[1,2]  -4.0020427092995374e-03
    x[2,13]   findWorstP[2,1]  7.1741886267514765e-02
    x[2,13]   findWorstP[2,3]  7.1741886267514765e-02
    x[2,13]   findWorstP[3,2]  -4.7692669646758314e-02
    x[2,14]   allocateEach[14]  1
    x[2,14]   findWorstP[1,2]  -6.4616314577232124e-04
    x[2,14]   findWorstP[2,1]  2.8831375716577472e-03
    x[2,14]   findWorstP[2,3]  2.8831375716577472e-03
    x[2,14]   findWorstP[3,2]  -0.0627163647363291
    x[2,15]   allocateEach[15]  1
    x[2,15]   findWorstP[1,2]  -9.6820252003626834e-03
    x[2,15]   findWorstP[2,1]  8.4699177688778174e-02
    x[2,15]   findWorstP[2,3]  8.4699177688778174e-02
    x[2,15]   findWorstP[3,2]  -7.8706348939602724e-02
    x[2,16]   allocateEach[16]  1
    x[2,16]   findWorstP[1,2]  -9.8988025137830754e-02
    x[2,16]   findWorstP[2,1]  5.3085630307721635e-02
    x[2,16]   findWorstP[2,3]  5.3085630307721635e-02
    x[2,16]   findWorstP[3,2]  -7.6059557019460225e-02
    x[2,17]   allocateEach[17]  1
    x[2,17]   findWorstP[1,2]  -1.7508936853185480e-02
    x[2,17]   findWorstP[2,1]  0.074165068039803
    x[2,17]   findWorstP[2,3]  0.074165068039803
    x[2,17]   findWorstP[3,2]  -5.9649447114576683e-02
    x[2,18]   allocateEach[18]  1
    x[2,18]   findWorstP[1,2]  -7.5569822096695174e-02
    x[2,18]   findWorstP[2,1]  3.8995277039230856e-02
    x[2,18]   findWorstP[2,3]  3.8995277039230856e-02
    x[2,18]   findWorstP[3,2]  -3.5794709777165326e-02
    x[2,19]   allocateEach[19]  1
    x[2,19]   findWorstP[1,2]  -5.2130775083115331e-02
    x[2,19]   findWorstP[2,1]  1.8970372115460120e-02
    x[2,19]   findWorstP[2,3]  1.8970372115460120e-02
    x[2,19]   findWorstP[3,2]  -6.2271031492622593e-02
    x[2,20]   allocateEach[20]  1
    x[2,20]   findWorstP[1,2]  -8.9347687882356613e-02
    x[2,20]   findWorstP[2,1]  5.4263565891472861e-02
    x[2,20]   findWorstP[2,3]  5.4263565891472861e-02
    x[2,20]   findWorstP[3,2]  -3.8567539407790813e-02
    x[3,1]    allocateEach[1]  1
    x[3,1]    findWorstP[1,3]  -3.2797990641056367e-02
    x[3,1]    findWorstP[2,3]  -4.8833843772086286e-02
    x[3,1]    findWorstP[3,1]  6.6657143817430181e-02
    x[3,1]    findWorstP[3,2]  6.6657143817430181e-02
    x[3,2]    allocateEach[2]  1
    x[3,2]    findWorstP[1,3]  -0.0102656564288022
    x[3,2]    findWorstP[2,3]  -8.9747473047711984e-05
    x[3,2]    findWorstP[3,1]  2.1838133969683732e-02
    x[3,2]    findWorstP[3,2]  2.1838133969683732e-02
    x[3,3]    allocateEach[3]  1
    x[3,3]    findWorstP[1,3]  -2.0510468885160133e-02
    x[3,3]    findWorstP[2,3]  -9.2697921224155516e-02
    x[3,3]    findWorstP[3,1]  4.0306859812455888e-02
    x[3,3]    findWorstP[3,2]  4.0306859812455888e-02
    x[3,4]    allocateEach[4]  1
    x[3,4]    findWorstP[1,3]  -8.7044428927264952e-02
    x[3,4]    findWorstP[2,3]  -6.9554291611976784e-03
    x[3,4]    findWorstP[3,1]  5.6120391221053348e-02
    x[3,4]    findWorstP[3,2]  5.6120391221053348e-02
    x[3,5]    allocateEach[5]  1
    x[3,5]    findWorstP[1,3]  -1.0146845785869871e-01
    x[3,5]    findWorstP[2,3]  -5.6417505244617944e-02
    x[3,5]    findWorstP[3,1]  8.0193593923301859e-02
    x[3,5]    findWorstP[3,2]  8.0193593923301859e-02
    x[3,6]    allocateEach[6]  1
    x[3,6]    findWorstP[1,3]  -8.7680170086815140e-02
    x[3,6]    findWorstP[2,3]  -8.9657725574664268e-02
    x[3,6]    findWorstP[3,1]  2.0359291500016804e-02
    x[3,6]    findWorstP[3,2]  2.0359291500016804e-02
    x[3,7]    allocateEach[7]  1
    x[3,7]    findWorstP[1,3]  -0.055288636908422
    x[3,7]    findWorstP[2,3]  -2.6587688890384671e-03
    x[3,7]    findWorstP[3,1]  3.6660168722481769e-02
    x[3,7]    findWorstP[3,2]  3.6660168722481769e-02
    x[3,8]    allocateEach[8]  1
    x[3,8]    findWorstP[1,3]  -8.3073652176631818e-02
    x[3,8]    findWorstP[2,3]  -9.1991159873904785e-04
    x[3,8]    findWorstP[3,1]  2.0586159378886162e-02
    x[3,8]    findWorstP[3,2]  2.0586159378886162e-02
    x[3,9]    allocateEach[9]  1
    x[3,9]    findWorstP[1,3]  -4.3876561995185035e-03
    x[3,9]    findWorstP[2,3]  -0.0830725047397884
    x[3,9]    findWorstP[3,1]  7.5899909252848452e-02
    x[3,9]    findWorstP[3,2]  7.5899909252848452e-02
    x[3,10]   allocateEach[10]  1
    x[3,10]   findWorstP[1,3]  -5.1442923992454474e-02
    x[3,10]   findWorstP[2,3]  -1.1176925924679430e-01
    x[3,10]   findWorstP[3,1]  0.04827244311498
    x[3,10]   findWorstP[3,2]  0.04827244311498
    x[3,11]   allocateEach[11]  1
    x[3,11]   findWorstP[1,3]  -7.2234786505612242e-02
    x[3,11]   findWorstP[2,3]  -3.5562436195155870e-03
    x[3,11]   findWorstP[3,1]  4.7650657076597325e-02
    x[3,11]   findWorstP[3,2]  4.7650657076597325e-02
    x[3,12]   allocateEach[12]  1
    x[3,12]   findWorstP[1,3]  -4.0718700169878372e-02
    x[3,12]   findWorstP[2,3]  -9.8957807469233425e-02
    x[3,12]   findWorstP[3,1]  1.9796323059859511e-02
    x[3,12]   findWorstP[3,2]  1.9796323059859511e-02
    x[3,13]   allocateEach[13]  1
    x[3,13]   findWorstP[1,3]  -4.0020427092995374e-03
    x[3,13]   findWorstP[2,3]  -7.1741886267514765e-02
    x[3,13]   findWorstP[3,1]  4.7692669646758314e-02
    x[3,13]   findWorstP[3,2]  4.7692669646758314e-02
    x[3,14]   allocateEach[14]  1
    x[3,14]   findWorstP[1,3]  -6.4616314577232124e-04
    x[3,14]   findWorstP[2,3]  -2.8831375716577472e-03
    x[3,14]   findWorstP[3,1]  0.0627163647363291
    x[3,14]   findWorstP[3,2]  0.0627163647363291
    x[3,15]   allocateEach[15]  1
    x[3,15]   findWorstP[1,3]  -9.6820252003626834e-03
    x[3,15]   findWorstP[2,3]  -8.4699177688778174e-02
    x[3,15]   findWorstP[3,1]  7.8706348939602724e-02
    x[3,15]   findWorstP[3,2]  7.8706348939602724e-02
    x[3,16]   allocateEach[16]  1
    x[3,16]   findWorstP[1,3]  -9.8988025137830754e-02
    x[3,16]   findWorstP[2,3]  -5.3085630307721635e-02
    x[3,16]   findWorstP[3,1]  7.6059557019460225e-02
    x[3,16]   findWorstP[3,2]  7.6059557019460225e-02
    x[3,17]   allocateEach[17]  1
    x[3,17]   findWorstP[1,3]  -1.7508936853185480e-02
    x[3,17]   findWorstP[2,3]  -0.074165068039803
    x[3,17]   findWorstP[3,1]  5.9649447114576683e-02
    x[3,17]   findWorstP[3,2]  5.9649447114576683e-02
    x[3,18]   allocateEach[18]  1
    x[3,18]   findWorstP[1,3]  -7.5569822096695174e-02
    x[3,18]   findWorstP[2,3]  -3.8995277039230856e-02
    x[3,18]   findWorstP[3,1]  3.5794709777165326e-02
    x[3,18]   findWorstP[3,2]  3.5794709777165326e-02
    x[3,19]   allocateEach[19]  1
    x[3,19]   findWorstP[1,3]  -5.2130775083115331e-02
    x[3,19]   findWorstP[2,3]  -1.8970372115460120e-02
    x[3,19]   findWorstP[3,1]  6.2271031492622593e-02
    x[3,19]   findWorstP[3,2]  6.2271031492622593e-02
    x[3,20]   allocateEach[20]  1
    x[3,20]   findWorstP[1,3]  -8.9347687882356613e-02
    x[3,20]   findWorstP[2,3]  -5.4263565891472861e-02
    x[3,20]   findWorstP[3,1]  3.8567539407790813e-02
    x[3,20]   findWorstP[3,2]  3.8567539407790813e-02
    MARKER    'MARKER'                 'INTEND'
RHS
    RHS1      allocateEach[1]  1
    RHS1      allocateEach[2]  1
    RHS1      allocateEach[3]  1
    RHS1      allocateEach[4]  1
    RHS1      allocateEach[5]  1
    RHS1      allocateEach[6]  1
    RHS1      allocateEach[7]  1
    RHS1      allocateEach[8]  1
    RHS1      allocateEach[9]  1
    RHS1      allocateEach[10]  1
    RHS1      allocateEach[11]  1
    RHS1      allocateEach[12]  1
    RHS1      allocateEach[13]  1
    RHS1      allocateEach[14]  1
    RHS1      allocateEach[15]  1
    RHS1      allocateEach[16]  1
    RHS1      allocateEach[17]  1
    RHS1      allocateEach[18]  1
    RHS1      allocateEach[19]  1
    RHS1      allocateEach[20]  1
    RHS1      allocateAllCash  1
BOUNDS
 UP BND1      z         1
 MI BND1      cashProportion[1]
 UP BND1      cashProportion[1]  1
 MI BND1      cashProportion[2]
 UP BND1      cashProportion[2]  1
 MI BND1      cashProportion[3]
 UP BND1      cashProportion[3]  1
 BV BND1      x[1,1]  
 BV BND1      x[1,2]  
 BV BND1      x[1,3]  
 BV BND1      x[1,4]  
 BV BND1      x[1,5]  
 BV BND1      x[1,6]  
 BV BND1      x[1,7]  
 BV BND1      x[1,8]  
 BV BND1      x[1,9]  
 BV BND1      x[1,10] 
 BV BND1      x[1,11] 
 BV BND1      x[1,12] 
 BV BND1      x[1,13] 
 BV BND1      x[1,14] 
 BV BND1      x[1,15] 
 BV BND1      x[1,16] 
 BV BND1      x[1,17] 
 BV BND1      x[1,18] 
 BV BND1      x[1,19] 
 BV BND1      x[1,20] 
 BV BND1      x[2,1]  
 BV BND1      x[2,2]  
 BV BND1      x[2,3]  
 BV BND1      x[2,4]  
 BV BND1      x[2,5]  
 BV BND1      x[2,6]  
 BV BND1      x[2,7]  
 BV BND1      x[2,8]  
 BV BND1      x[2,9]  
 BV BND1      x[2,10] 
 BV BND1      x[2,11] 
 BV BND1      x[2,12] 
 BV BND1      x[2,13] 
 BV BND1      x[2,14] 
 BV BND1      x[2,15] 
 BV BND1      x[2,16] 
 BV BND1      x[2,17] 
 BV BND1      x[2,18] 
 BV BND1      x[2,19] 
 BV BND1      x[2,20] 
 BV BND1      x[3,1]  
 BV BND1      x[3,2]  
 BV BND1      x[3,3]  
 BV BND1      x[3,4]  
 BV BND1      x[3,5]  
 BV BND1      x[3,6]  
 BV BND1      x[3,7]  
 BV BND1      x[3,8]  
 BV BND1      x[3,9]  
 BV BND1      x[3,10] 
 BV BND1      x[3,11] 
 BV BND1      x[3,12] 
 BV BND1      x[3,13] 
 BV BND1      x[3,14] 
 BV BND1      x[3,15] 
 BV BND1      x[3,16] 
 BV BND1      x[3,17] 
 BV BND1      x[3,18] 
 BV BND1      x[3,19] 
 BV BND1      x[3,20] 
ENDATA
